60

 0   1   2   3   4   5   6   7   8   9   1   2   3   4   5   6   7   8   9  10   2   3   4   5   6   7   8   9  10  11   3   4   5   6   7   8   9  10  11  12   4   5   6   7   8   9  10  11  12  13   5   6   7   8   9  10  11  12  13  14  
 1   0   1   2   3   4   5   6   7   8   2   1   2   3   4   5   6   7   8   9   3   2   3   4   5   6   7   8   9  10   4   3   4   5   6   7   8   9  10  11   5   4   5   6   7   8   9  10  11  12   6   5   6   7   8   9  10  11  12  13  
 2   1   0   1   2   3   4   5   6   7   3   2   1   2   3   4   5   6   7   8   4   3   2   3   4   5   6   7   8   9   5   4   3   4   5   6   7   8   9  10   6   5   4   5   6   7   8   9  10  11   7   6   5   6   7   8   9  10  11  12  
 3   2   1   0   1   2   3   4   5   6   4   3   2   1   2   3   4   5   6   7   5   4   3   2   3   4   5   6   7   8   6   5   4   3   4   5   6   7   8   9   7   6   5   4   5   6   7   8   9  10   8   7   6   5   6   7   8   9  10  11  
 4   3   2   1   0   1   2   3   4   5   5   4   3   2   1   2   3   4   5   6   6   5   4   3   2   3   4   5   6   7   7   6   5   4   3   4   5   6   7   8   8   7   6   5   4   5   6   7   8   9   9   8   7   6   5   6   7   8   9  10  
 5   4   3   2   1   0   1   2   3   4   6   5   4   3   2   1   2   3   4   5   7   6   5   4   3   2   3   4   5   6   8   7   6   5   4   3   4   5   6   7   9   8   7   6   5   4   5   6   7   8  10   9   8   7   6   5   6   7   8   9  
 6   5   4   3   2   1   0   1   2   3   7   6   5   4   3   2   1   2   3   4   8   7   6   5   4   3   2   3   4   5   9   8   7   6   5   4   3   4   5   6  10   9   8   7   6   5   4   5   6   7  11  10   9   8   7   6   5   6   7   8  
 7   6   5   4   3   2   1   0   1   2   8   7   6   5   4   3   2   1   2   3   9   8   7   6   5   4   3   2   3   4  10   9   8   7   6   5   4   3   4   5  11  10   9   8   7   6   5   4   5   6  12  11  10   9   8   7   6   5   6   7  
 8   7   6   5   4   3   2   1   0   1   9   8   7   6   5   4   3   2   1   2  10   9   8   7   6   5   4   3   2   3  11  10   9   8   7   6   5   4   3   4  12  11  10   9   8   7   6   5   4   5  13  12  11  10   9   8   7   6   5   6  
 9   8   7   6   5   4   3   2   1   0  10   9   8   7   6   5   4   3   2   1  11  10   9   8   7   6   5   4   3   2  12  11  10   9   8   7   6   5   4   3  13  12  11  10   9   8   7   6   5   4  14  13  12  11  10   9   8   7   6   5  
 1   2   3   4   5   6   7   8   9  10   0   1   2   3   4   5   6   7   8   9   1   2   3   4   5   6   7   8   9  10   2   3   4   5   6   7   8   9  10  11   3   4   5   6   7   8   9  10  11  12   4   5   6   7   8   9  10  11  12  13  
 2   1   2   3   4   5   6   7   8   9   1   0   1   2   3   4   5   6   7   8   2   1   2   3   4   5   6   7   8   9   3   2   3   4   5   6   7   8   9  10   4   3   4   5   6   7   8   9  10  11   5   4   5   6   7   8   9  10  11  12  
 3   2   1   2   3   4   5   6   7   8   2   1   0   1   2   3   4   5   6   7   3   2   1   2   3   4   5   6   7   8   4   3   2   3   4   5   6   7   8   9   5   4   3   4   5   6   7   8   9  10   6   5   4   5   6   7   8   9  10  11  
 4   3   2   1   2   3   4   5   6   7   3   2   1   0   1   2   3   4   5   6   4   3   2   1   2   3   4   5   6   7   5   4   3   2   3   4   5   6   7   8   6   5   4   3   4   5   6   7   8   9   7   6   5   4   5   6   7   8   9  10  
 5   4   3   2   1   2   3   4   5   6   4   3   2   1   0   1   2   3   4   5   5   4   3   2   1   2   3   4   5   6   6   5   4   3   2   3   4   5   6   7   7   6   5   4   3   4   5   6   7   8   8   7   6   5   4   5   6   7   8   9  
 6   5   4   3   2   1   2   3   4   5   5   4   3   2   1   0   1   2   3   4   6   5   4   3   2   1   2   3   4   5   7   6   5   4   3   2   3   4   5   6   8   7   6   5   4   3   4   5   6   7   9   8   7   6   5   4   5   6   7   8  
 7   6   5   4   3   2   1   2   3   4   6   5   4   3   2   1   0   1   2   3   7   6   5   4   3   2   1   2   3   4   8   7   6   5   4   3   2   3   4   5   9   8   7   6   5   4   3   4   5   6  10   9   8   7   6   5   4   5   6   7  
 8   7   6   5   4   3   2   1   2   3   7   6   5   4   3   2   1   0   1   2   8   7   6   5   4   3   2   1   2   3   9   8   7   6   5   4   3   2   3   4  10   9   8   7   6   5   4   3   4   5  11  10   9   8   7   6   5   4   5   6  
 9   8   7   6   5   4   3   2   1   2   8   7   6   5   4   3   2   1   0   1   9   8   7   6   5   4   3   2   1   2  10   9   8   7   6   5   4   3   2   3  11  10   9   8   7   6   5   4   3   4  12  11  10   9   8   7   6   5   4   5  
10   9   8   7   6   5   4   3   2   1   9   8   7   6   5   4   3   2   1   0  10   9   8   7   6   5   4   3   2   1  11  10   9   8   7   6   5   4   3   2  12  11  10   9   8   7   6   5   4   3  13  12  11  10   9   8   7   6   5   4  
 2   3   4   5   6   7   8   9  10  11   1   2   3   4   5   6   7   8   9  10   0   1   2   3   4   5   6   7   8   9   1   2   3   4   5   6   7   8   9  10   2   3   4   5   6   7   8   9  10  11   3   4   5   6   7   8   9  10  11  12  
 3   2   3   4   5   6   7   8   9  10   2   1   2   3   4   5   6   7   8   9   1   0   1   2   3   4   5   6   7   8   2   1   2   3   4   5   6   7   8   9   3   2   3   4   5   6   7   8   9  10   4   3   4   5   6   7   8   9  10  11  
 4   3   2   3   4   5   6   7   8   9   3   2   1   2   3   4   5   6   7   8   2   1   0   1   2   3   4   5   6   7   3   2   1   2   3   4   5   6   7   8   4   3   2   3   4   5   6   7   8   9   5   4   3   4   5   6   7   8   9  10  
 5   4   3   2   3   4   5   6   7   8   4   3   2   1   2   3   4   5   6   7   3   2   1   0   1   2   3   4   5   6   4   3   2   1   2   3   4   5   6   7   5   4   3   2   3   4   5   6   7   8   6   5   4   3   4   5   6   7   8   9  
 6   5   4   3   2   3   4   5   6   7   5   4   3   2   1   2   3   4   5   6   4   3   2   1   0   1   2   3   4   5   5   4   3   2   1   2   3   4   5   6   6   5   4   3   2   3   4   5   6   7   7   6   5   4   3   4   5   6   7   8  
 7   6   5   4   3   2   3   4   5   6   6   5   4   3   2   1   2   3   4   5   5   4   3   2   1   0   1   2   3   4   6   5   4   3   2   1   2   3   4   5   7   6   5   4   3   2   3   4   5   6   8   7   6   5   4   3   4   5   6   7  
 8   7   6   5   4   3   2   3   4   5   7   6   5   4   3   2   1   2   3   4   6   5   4   3   2   1   0   1   2   3   7   6   5   4   3   2   1   2   3   4   8   7   6   5   4   3   2   3   4   5   9   8   7   6   5   4   3   4   5   6  
 9   8   7   6   5   4   3   2   3   4   8   7   6   5   4   3   2   1   2   3   7   6   5   4   3   2   1   0   1   2   8   7   6   5   4   3   2   1   2   3   9   8   7   6   5   4   3   2   3   4  10   9   8   7   6   5   4   3   4   5  
10   9   8   7   6   5   4   3   2   3   9   8   7   6   5   4   3   2   1   2   8   7   6   5   4   3   2   1   0   1   9   8   7   6   5   4   3   2   1   2  10   9   8   7   6   5   4   3   2   3  11  10   9   8   7   6   5   4   3   4  
11  10   9   8   7   6   5   4   3   2  10   9   8   7   6   5   4   3   2   1   9   8   7   6   5   4   3   2   1   0  10   9   8   7   6   5   4   3   2   1  11  10   9   8   7   6   5   4   3   2  12  11  10   9   8   7   6   5   4   3  
 3   4   5   6   7   8   9  10  11  12   2   3   4   5   6   7   8   9  10  11   1   2   3   4   5   6   7   8   9  10   0   1   2   3   4   5   6   7   8   9   1   2   3   4   5   6   7   8   9  10   2   3   4   5   6   7   8   9  10  11  
 4   3   4   5   6   7   8   9  10  11   3   2   3   4   5   6   7   8   9  10   2   1   2   3   4   5   6   7   8   9   1   0   1   2   3   4   5   6   7   8   2   1   2   3   4   5   6   7   8   9   3   2   3   4   5   6   7   8   9  10  
 5   4   3   4   5   6   7   8   9  10   4   3   2   3   4   5   6   7   8   9   3   2   1   2   3   4   5   6   7   8   2   1   0   1   2   3   4   5   6   7   3   2   1   2   3   4   5   6   7   8   4   3   2   3   4   5   6   7   8   9  
 6   5   4   3   4   5   6   7   8   9   5   4   3   2   3   4   5   6   7   8   4   3   2   1   2   3   4   5   6   7   3   2   1   0   1   2   3   4   5   6   4   3   2   1   2   3   4   5   6   7   5   4   3   2   3   4   5   6   7   8  
 7   6   5   4   3   4   5   6   7   8   6   5   4   3   2   3   4   5   6   7   5   4   3   2   1   2   3   4   5   6   4   3   2   1   0   1   2   3   4   5   5   4   3   2   1   2   3   4   5   6   6   5   4   3   2   3   4   5   6   7  
 8   7   6   5   4   3   4   5   6   7   7   6   5   4   3   2   3   4   5   6   6   5   4   3   2   1   2   3   4   5   5   4   3   2   1   0   1   2   3   4   6   5   4   3   2   1   2   3   4   5   7   6   5   4   3   2   3   4   5   6  
 9   8   7   6   5   4   3   4   5   6   8   7   6   5   4   3   2   3   4   5   7   6   5   4   3   2   1   2   3   4   6   5   4   3   2   1   0   1   2   3   7   6   5   4   3   2   1   2   3   4   8   7   6   5   4   3   2   3   4   5  
10   9   8   7   6   5   4   3   4   5   9   8   7   6   5   4   3   2   3   4   8   7   6   5   4   3   2   1   2   3   7   6   5   4   3   2   1   0   1   2   8   7   6   5   4   3   2   1   2   3   9   8   7   6   5   4   3   2   3   4  
11  10   9   8   7   6   5   4   3   4  10   9   8   7   6   5   4   3   2   3   9   8   7   6   5   4   3   2   1   2   8   7   6   5   4   3   2   1   0   1   9   8   7   6   5   4   3   2   1   2  10   9   8   7   6   5   4   3   2   3  
12  11  10   9   8   7   6   5   4   3  11  10   9   8   7   6   5   4   3   2  10   9   8   7   6   5   4   3   2   1   9   8   7   6   5   4   3   2   1   0  10   9   8   7   6   5   4   3   2   1  11  10   9   8   7   6   5   4   3   2  
 4   5   6   7   8   9  10  11  12  13   3   4   5   6   7   8   9  10  11  12   2   3   4   5   6   7   8   9  10  11   1   2   3   4   5   6   7   8   9  10   0   1   2   3   4   5   6   7   8   9   1   2   3   4   5   6   7   8   9  10  
 5   4   5   6   7   8   9  10  11  12   4   3   4   5   6   7   8   9  10  11   3   2   3   4   5   6   7   8   9  10   2   1   2   3   4   5   6   7   8   9   1   0   1   2   3   4   5   6   7   8   2   1   2   3   4   5   6   7   8   9  
 6   5   4   5   6   7   8   9  10  11   5   4   3   4   5   6   7   8   9  10   4   3   2   3   4   5   6   7   8   9   3   2   1   2   3   4   5   6   7   8   2   1   0   1   2   3   4   5   6   7   3   2   1   2   3   4   5   6   7   8  
 7   6   5   4   5   6   7   8   9  10   6   5   4   3   4   5   6   7   8   9   5   4   3   2   3   4   5   6   7   8   4   3   2   1   2   3   4   5   6   7   3   2   1   0   1   2   3   4   5   6   4   3   2   1   2   3   4   5   6   7  
 8   7   6   5   4   5   6   7   8   9   7   6   5   4   3   4   5   6   7   8   6   5   4   3   2   3   4   5   6   7   5   4   3   2   1   2   3   4   5   6   4   3   2   1   0   1   2   3   4   5   5   4   3   2   1   2   3   4   5   6  
 9   8   7   6   5   4   5   6   7   8   8   7   6   5   4   3   4   5   6   7   7   6   5   4   3   2   3   4   5   6   6   5   4   3   2   1   2   3   4   5   5   4   3   2   1   0   1   2   3   4   6   5   4   3   2   1   2   3   4   5  
10   9   8   7   6   5   4   5   6   7   9   8   7   6   5   4   3   4   5   6   8   7   6   5   4   3   2   3   4   5   7   6   5   4   3   2   1   2   3   4   6   5   4   3   2   1   0   1   2   3   7   6   5   4   3   2   1   2   3   4  
11  10   9   8   7   6   5   4   5   6  10   9   8   7   6   5   4   3   4   5   9   8   7   6   5   4   3   2   3   4   8   7   6   5   4   3   2   1   2   3   7   6   5   4   3   2   1   0   1   2   8   7   6   5   4   3   2   1   2   3  
12  11  10   9   8   7   6   5   4   5  11  10   9   8   7   6   5   4   3   4  10   9   8   7   6   5   4   3   2   3   9   8   7   6   5   4   3   2   1   2   8   7   6   5   4   3   2   1   0   1   9   8   7   6   5   4   3   2   1   2  
13  12  11  10   9   8   7   6   5   4  12  11  10   9   8   7   6   5   4   3  11  10   9   8   7   6   5   4   3   2  10   9   8   7   6   5   4   3   2   1   9   8   7   6   5   4   3   2   1   0  10   9   8   7   6   5   4   3   2   1  
 5   6   7   8   9  10  11  12  13  14   4   5   6   7   8   9  10  11  12  13   3   4   5   6   7   8   9  10  11  12   2   3   4   5   6   7   8   9  10  11   1   2   3   4   5   6   7   8   9  10   0   1   2   3   4   5   6   7   8   9  
 6   5   6   7   8   9  10  11  12  13   5   4   5   6   7   8   9  10  11  12   4   3   4   5   6   7   8   9  10  11   3   2   3   4   5   6   7   8   9  10   2   1   2   3   4   5   6   7   8   9   1   0   1   2   3   4   5   6   7   8  
 7   6   5   6   7   8   9  10  11  12   6   5   4   5   6   7   8   9  10  11   5   4   3   4   5   6   7   8   9  10   4   3   2   3   4   5   6   7   8   9   3   2   1   2   3   4   5   6   7   8   2   1   0   1   2   3   4   5   6   7  
 8   7   6   5   6   7   8   9  10  11   7   6   5   4   5   6   7   8   9  10   6   5   4   3   4   5   6   7   8   9   5   4   3   2   3   4   5   6   7   8   4   3   2   1   2   3   4   5   6   7   3   2   1   0   1   2   3   4   5   6  
 9   8   7   6   5   6   7   8   9  10   8   7   6   5   4   5   6   7   8   9   7   6   5   4   3   4   5   6   7   8   6   5   4   3   2   3   4   5   6   7   5   4   3   2   1   2   3   4   5   6   4   3   2   1   0   1   2   3   4   5  
10   9   8   7   6   5   6   7   8   9   9   8   7   6   5   4   5   6   7   8   8   7   6   5   4   3   4   5   6   7   7   6   5   4   3   2   3   4   5   6   6   5   4   3   2   1   2   3   4   5   5   4   3   2   1   0   1   2   3   4  
11  10   9   8   7   6   5   6   7   8  10   9   8   7   6   5   4   5   6   7   9   8   7   6   5   4   3   4   5   6   8   7   6   5   4   3   2   3   4   5   7   6   5   4   3   2   1   2   3   4   6   5   4   3   2   1   0   1   2   3  
12  11  10   9   8   7   6   5   6   7  11  10   9   8   7   6   5   4   5   6  10   9   8   7   6   5   4   3   4   5   9   8   7   6   5   4   3   2   3   4   8   7   6   5   4   3   2   1   2   3   7   6   5   4   3   2   1   0   1   2  
13  12  11  10   9   8   7   6   5   6  12  11  10   9   8   7   6   5   4   5  11  10   9   8   7   6   5   4   3   4  10   9   8   7   6   5   4   3   2   3   9   8   7   6   5   4   3   2   1   2   8   7   6   5   4   3   2   1   0   1  
14  13  12  11  10   9   8   7   6   5  13  12  11  10   9   8   7   6   5   4  12  11  10   9   8   7   6   5   4   3  11  10   9   8   7   6   5   4   3   2  10   9   8   7   6   5   4   3   2   1   9   8   7   6   5   4   3   2   1   0  

 0   0   0   0   0  58   0   0   0   0   0   0   0   0   0   0  85   0   0   0  15   0   0   0   0   0   0   0   0   0   0   0   0   0   0   0   0   0   0   0   0   0   0   0  12   0   0   0   0   0   0   0   0   0   0   0   0  86   0   0  
 0   0   0   0   0  34   0  39   0   0   0   0   0   0   0   0   0  29   4   0   0   0   0   0  71   4   0   3   0   1   0   0   0   5  71   0   0   0  10   0   0  47   0  30   0   0   0   1   0   0   0   0   0   1   0   0   1   0   1   0  
 0   0   0  48   0   0   0   0   0   0   0  81   0  17   0   0   0   0  76   0   0   0   0   1   0   0   0  33   0   0   0   0   9   8   2   0   0   0   3  46   0   0   0   1   3   0   0   0  92   0   0   0  77   0   0   0   0  49   0   0  
 0   0  14   0   0   0   0   0   0   0   0  17   0  15   0   0   0   0   1   0   0   0   1  13   0   0   0  96   0   0   0   0   1  11  31   0   0   0   9   2   0   0   0  55   0   0   0   0   7   0   0   0  11   0   0   0   0  16   0   0  
 0   0   0   0   0   0   0   0   1   0   0   0   0   0   0   0   0  32   0   0   0  78   0   0   0   9   0   0   0   0   0   0   0   0   0   0   0   0   0   0   0   0  68   0   0   0   0   0   0   0  34   0   0   0   1   0   0   0   0   0  
37   8   0   0   0   0   0  85   0   0   0   0   0   0   0   0   0   0  10   5   0   0   0   0   0  17   0  72   0   0   0   0   0   0   0   0   0   0   0   0   0   0   1  51   0   0   0   0   0   0  50   0   0   0   0   0   0  35   2   0  
 0   0   0   0   0   0   0   0   0  43   0   0   0   0   0   0   0   0   0   0   0   0   0   0  22   0   0   0   5  22   0   1   0   0   0   0  35   0   0   0   1  88   0   0   0   0  10   1   0   1   0   0   0   1   0   0   5   0   0   0  
 0   4   0   0   0   1   0   0   0   0   0   0   0   0   0   0   0  55  86   0   0   0   0   0  92  80   0   1   0   0   0   0   0  27  43   0   0   0   0   0   0  28   0  11   0   0   0  11   0   0   0   0   0  37   0   0   0  18   1   0  
 0   0   0   0  10   0   0   0   0   0  22   0  10   0   0  22   0   0   0   0   0   1   0   0   0   0   0   0   0   0   0   0   0   0   0   0   0   6   0   0   0   0   0   0   0   0   0   0   0   0   0   0   0   0  81   0   0   0   0   0  
 0   0   0   0   0   0   1   0   0   0   0   0   0   0   1   0   0   0   0   0   0   0   0   0   0   0   0   0  51   0   0  94   0   0   0   0   0   0   0   0  40  89   0   0   0   0  20   0   0   5   0   0   0   0   0   0  42   0   0   0  
 0   0   0   0   0   0   0   0   9   0   0   0  19   0   0  79   0   0   0   0   0  24   0   0   0   0   0   0   0   5   0   0   0   0   0   0  36  78   0   0   0   0   0   0   0   0  24   0   0   0   0   0   0   0  30   0   0   0   0   0  
 0   0  45  79   0   0   0   0   0   0   0   0   0  24   0   0   0   0  93   0   0   0  94   1   0   0   0  34   0   0   5   0   0  16  14  74   0   0  77  87   0   0   0   0   0   0   0   0  29   0   0   0  47   0   0   0   0   0   0   0  
 0   0   0   0   0   0   0   0  82   0  14   0   0   0   0  68   0   3   0   0   0   5   0   0   0   0   0   0   0  13   0  42   0   0   0   0  10  81   0   0   0   0   0   0   0   0  85   1   0   0   0   0   0   0  10   0   0   0   0   0  
 0   0  34  47   0   0   0   0   0   0   0  44   0   0   0   0   0   0  10   0   0   0   1  31   0   0   0   1   0   0   0   0  74  21  72   0   0   0   6  81   0   0   0  85   0   0   0   0  70   0   0   0  37   0   0   0   0   0   0   0  
 0   0   0   0   0   0   0   0   0  31   0   0   0   0   0   0   0   0   0   0   0   0   0   0   0   0   0   0   1   0   0   0   0   0   0   0   0   0   0   0  27   0   0   0   0  13   0   0   0   0   0  80   0   0   0  33   0   0   0  16  
 0   0   0   0   0   0   0   0   4   0  39   0   2   0   0   0   0   0   0   0   0   9   0   0   0   0   0   0   0  76   0   0   0   0   0   0  58  65   0   0   0   0   0   0   0   0  11   0   0   0   0   0   0   0  97   0   0   0   0   0  
12   0   0   0   0   0   0   0   0   0   0   0   0   0   0   0   0   0   0   0   3   0   0   0   0   0   0   0   0   0   0   0   0   0   0   0   0   0   0   0   0   0   0   0   0   0   0   0   0   0   0   0   0   0   0   0   0   0   0   0  
 0   4   0   0  93   0   0  64   0   0   0   0   1   0   0   0   0   0   0   0   0  60   0   0   9  57   0   0   0  44   0   0   0   0   0   0   1   0   0   0   0  16  18   0   0   0   0  75   0   0  64   0   0   0   0   0   0   0   4   0  
 0  15  56   1   0   1   0  53   0   0   0  14   0   1   0   0   0   0   0   0   0   0   0   0   0   0   0   1   0   0   0   0  38  11  82   0   0   0  53  77   0   0   0  10   6   0   0   0   9   0   0   0   0  92   0   0   0  13   6   0  
 0   0   0   0   0   3   0   0   0   0   0   0   0   0   0   0   0   0   0   0  77   0   0   0   0  57   0   0   0   0   0   0   0   0   0   0   0   0   0   0   0   0  60   0   0   0   0   0   0   0   1   0   0   0   0   0   0   0   1   0  
15   0   0   0   0   0   0   0   0   0   0   0   0   0   0   0  28   0   0   2   0   0   0   0   0   0   0   0   0   0   0   0   0   0   0   0   0   0   0   0   0   0   1   0   0   0   0   0   0   0   0   0   0   0   0   0   0   0   0   0  
 0   0   0   0   1   0   0   0   2   0  54   0   1   0   0   1   0   1   0   0   0   0   0   0   0   1   0   0   0   1   0   0   0   0   0   0  11  75   0   0   0   0   0   0   0   0  22  52   0   0   2   0   0   0   1   0   0   0   0   0  
 0   0   0  14   0   0   0   0   0   0   0   1   0   1   0   0   0   0   0   0   0   0   0   1   0   0   1   0   0   0   1   0   0   0   0  10   0   0   0   0   0   0   0   0   0   0   0   0  42   0   0   0   9   0   0   0   0   0   0   0  
 0   0   1   1   0   0   0   0   0   0   0   8   0  10   0   0   0   0   0   0   0   0  89   0   0   0   0   0   0   0  35   0   0  55   7  76   0   0  91   0   0   0   0   0   0   0   0   0  29   0   0   0   0   0   0   0   0   0   0   0  
 0   5   0   0   0   0  25  36   0   0   0   0   0   0   0   0   0  88   0   0   0   0   0   0   0  99   0   0   0   1   0  36   0   0   0   0  70   0   0   0   0  19   0   6   0   0  39  88   0   0   0   0   0   4   0   0   7   0  61   0  
 0  43   0   0  28  88   0  80   0   0   0   0   0   0   0   0   0   1   0   4   0  98   0   0  49   0   0   0   0  24   0   0   0   0   0   0   0   0   0   0   0   0   2   0   0   0   0  12   0   0  47   0   0   0   0   0   0   0  21   0  
 0   0   0   0   0   0   0   0   0   0   0   0   0   0   0   0   0   0   0   0   0   0  45   0   0   0   0   0   0   0   0   0   0   0   0  18   0   0   0   0   0   0   0   0   0   0   0   0   0   0   0   0  98   0   0   0   0   0   0   0  
 0   6   7  27   0   6   0  20   0   0   0   9   0   5   0   0   0   0   5   0   0   0   0   0   0   0   0   0   0   0   0   0   1  48  88   0   0   0  49  73   0   0   0  29   1   0   0   0   5   0   0   0   0  13   0   0   0  38   0   0  
 0   0   0   0   0   0  23   0   0  85   0   0   0   0   1   0   0   0   0   0   0   0   0   0   0   0   0   0   0   1   0   1   0   0   0   0  83   0   0   0   3   1   0   0   0   0  25   0   0   0   0   0   0   0   0   0   1   0   0   0  
 0  95   0   0   0   0  73   0   0   0  24   0  64   0   0   1   0  29   0   0   0   1   0   0  91  42   0   0   1   0   0   1   0   0   0   0  34   0   0   0  31  17   0   0   0   0  38  14   0   0   0   0   0   0   0   0  69   0   0   0  
 0   0   0   0   0   0   0   0   0   0   0  14   0   0   0   0   0   0   0   0   0   0  28   1   0   0   0   0   0   0   0   0   0   0   0   1   0   0   6   0   0   0   0   0   0   0   0   0   3   0   0   0   0   0   0   0   0   0   0   0  
 0   0   0   0   0   0  32   0   0  59   0   0   2   0   0   0   0   0   0   0   0   0   0   0   9   0   0   0  11  83   0   0   0   0   0   0  65   0   0   0   4  35   0   0   0   0  13  39   0  67   0   0   0   1   0   0  43   0   0   0  
 0   0   1  15   0   0   0   0   0   0   0   0   0  99   0   0   0   0   1   0   0   0   0   0   0   0   0   1   0   0   0   0   0   0   0   0   0   0   0  29   0   0   0   0  87   0   0   0   0   0   0   0  15   0   0   0   0  43   0   0  
 0   6  86  34   0   0   0  22   0   0   0  14   0   2   0   0   0   0  63   0   0   0   0  64   0   0   0   3   0   0   0   0   0   0  63   0   0   0   3   0   0   0   0   1   0   0   0   0  13   0   0   0   0  22   0   0  11   0   0   0  
 0   1  99  68   0   0   0   9   0   0   0   6   0  52   0   0   0   0  17   0   0   0   0  15   0   0   0   1   0   0   0   0   0  45   0   0   0   0  52   1   0   0   0  69   0   0   0   0   1   0   0   0   0  31   0   0   0   9   0   0  
 0   0   0   0   0   0   0   0   0   0   0  22   0   0   0   0   0   0   0   0   0   0  89   3   0   0   3   0   0   0  10   0   0   0   0   0   0   0   0   0   0   0   0   0   0   0   0   0  30   0   0   0  81   0   0   0   0   0   0   0  
 0   0   0   0   0   0  30   0   0   0   1   0  35   0   0  86   0  95   0   0   0  85   0   0  50   0   0   0  35  89   0  12   0   0   0   0   0   0   0   0  53  75   0   0   0   0   4   1   0   0   0   0   0   0   0   0   0   0   0   0  
 0   0   0   0   0   0   0   0  17   0  32   0   9   0   0   8   0   0   0   0   0   1   0   0   0   0   0   0   0   0   0   0   0   0   0   0   0   0   0   0   0   0   0   0   0   0   0   0   0   0   0   0   0   0  52   0   0   0   0   0  
 0   1  29   1   0   0   0   0   0   0   0   1   0  13   0   0   0   0   1   0   0   0   0   1   0   0   0   8   0   0  17   0   0  44  34   0   0   0   0   0   0   0   0   1   0   0   0   0  44   0   0   0   0  59   0   0   0   0   0   0  
 0   0  36   3   0   0   0   0   0   0   0   2   0  20   0   0   0   0   3   0   0   0   0   0   0   0   0   1   0   0   0   0  46   0  38   0   0   0   0   0   0   0   0   0   1   0   0   0   0   0   0   0  41   0   0   0   0  77   0   0  
 0   0   0   0   0   0  84   0   0  24   0   0   0   0  57   0   0   0   0   0   0   0   0   0   0   0   0   0  19  71   0   3   0   0   0   0   1   0   0   0   0   9   0   0   0   0  80   0   0   4   0   0   0   0   0   0  31   0   0   0  
 0   1   0   0   0   0   1   1   0  15   0   0   0   0   0   0   0   1   0   0   0   0   0   0  62   0   0   0   1  56   0   6   0   0   0   0  69   0   0   0   4   0   0   0   0   0  49   7   0   1   0   0   0  53   0   0  13   0   0   0  
 0   0   0   0  11  81   0   0   0   0   0   0   0   0   0   0   0  43   0  23  85   0   0   0   0  39   0   0   0   0   0   0   0   0   0   0   0   0   0   0   0   0   0   0   0   0   0   0   0   0  59   0   0   0   0   0   0   0  17   0  
 0  94  98  24   0  24   0   1   0   0   0   0   0  11   0   0   0   0  39   0   0   0   0   0  41   0   0   4   0   0   0   0   0  49  15   0   0   0  71   0   0   0   0   0   0   0   0  16   0   0   0   0   0  50   0   0   0   1  39   0  
37   0  45   0   0   0   0   0   0   0   0   0   0   0   0   0   0   0  43   0   0   0   0   0   0   0   0   4   0   0   0   0   6   0   0   0   0   0   0  23   0   0   0   0   0   0   0   0   0   0   0   0   0   0   0   0   0  10   0   0  
 0   0   0   0   0   0   0   0   0   0   0   0   0   0  10   0   0   0   0   0   0   0   0   0   0   0   0   0   0   0   0   0   0   0   0   0   0   0   0   0   0   0   0   0   0   0   0   0   0   1   0  71   0   0   0  55   0   0   0   1  
 0   0   0   0   0   0  11   0   0  60   1   0  51   0   0   9   0   0   0   0   0   4   0   0  49   0   0   0  73  26   0   2   0   0   0   0  25   0   0   0   1   7   0   0   0   0   0  39   0   0   0   0   0   0   0   0   0   0   0   0  
 0  86   0   0   0   0  24  17   0   0   0   0  74   0   0   0   0  10   0   0   0  40   0   0  11   3   0   0   0   7   0  32   0   0   0   0  67   0   0   0   0   1   0  62   0   0   2   0   0   0   0   0   0  22   0   0   7   0  20   0  
 0   0  47  34   0   0   0   0   0   0   0   5   0   9   0   0   0   0   7   0   0   0  29  28   0   0   0   2   0   0  61   0   0  91   1  16   0   0   1   0   0   0   0   0   0   0   0   0   0   0   0   0  11   0   0   0   0   0   0   0  
 0   0   0   0   0   0  65   0   0   6   0   0   0   0   0   0   0   0   0   0   0   0   0   0   0   0   0   0   0   0   0  40   0   0   0   0   0   0   0   0  73   1   0   0   0  58   0   0   0   0   0   0   0   1   0  34   1   0   0  91  
 0   0   0   0  70   1   0   0   0   0   0   0   0   0   0   0   0   1   0   1   0  25   0   0   0  22   0   0   0   0   0   0   0   0   0   0   0   0   0   0   0   0  84   0   0   0   0   0   0   0   0   0   0   0   0   0   0   0  33   0  
 0   0   0   0   0   0   0   0   0   0   0   0   0   0   4   0   0   0   0   0   0   0   0   0   0   0   0   0   0   0   0   0   0   0   0   0   0   0   0   0   0   0   0   0   0   1   0   0   0   0   0   0   0   0   0  75   0   0   0  56  
 0   0  14  96   0   0   0   0   0   0   0  31   0  24   0   0   0   0   0   0   0   0   1   0   0   0  18   0   0   0   0   0  21   0   0  55   0   0   0   6   0   0   0   0   0   0   0   0  62   0   0   0   0   0   0   0   0   0   0   0  
 0  94   0   0   0   0  13  15   0   0   0   0   0   0   0   0   0   0   1   0   0   0   0   0  11   0   0   1   0   0   0  20   0   1  95   0   0   0  42   0   0  10   0   1   0   0   0  15   0  79   0   0   0   0   0   0   3   0  40   0  
 0   0   0   0   3   0   0   0   2   0   9   0   9   0   0   3   0   0   0   0   0  80   0   0   0   0   0   0   0   0   0   0   0   0   0   0   0  43   0   0   0   0   0   0   0   0   0   0   0   0   0   0   0   0   0   0   0   0   0   0  
 0   0   0   0   0   0   0   0   0   0   0   0   0   0  44   0   0   0   0   0   0   0   0   0   0   0   0   0   0   0   0   0   0   0   0   0   0   0   0   0   0   0   0   0   0   1   0   0   0  24   0  68   0   0   0   0   0   0   0  20  
 0  74   0   0   0   0  47   0   0  15   0   0   0   0   0   0   0   0   0   0   0   0   0   0  20   0   0   0   1  49   0  14   0   1   0   0   0   0   0   0  81  66   0   0   0   0   0  31   0   2   0   0   0   7   0   0   0   0   0   0  
 1   0  16  74   0  21   0  10   0   0   0   0   0   0   0   0   0   0   2   0   0   0   0   0   0   0   0  39   0   0   0   0   9   0  47   0   0   0   0   2   0   0   0  10  15   0   0   0   0   0   0   0   0   0   0   0   0   0  75   0  
 0  86   0   0   0   8   0  32   0   0   0   0   0   0   0   0   0  10  89  23   0   0   0   0  43  13   0   0   0   0   0   0   0   0   0   0   0   0   0   0   0   0   1   1   0   0   0  97   0   0  37   0   0  66   0   0   0   1   0   0  
 0   0   0   0   0   0   0   0   0   0   0   0   0   0   6   0   0   0   0   0   0   0   0   0   0   0   0   0   0   0   0   0   0   0   0   0   0   0   0   0   0   0   0   0   0   3   0   0   0  90   0   5   0   0   0   1   0   0   0   0  
